letting fixed be

[
    [0,0,0,0,0,0,0,0,0],
    [0,0,0,0,0,0,0,0,0],
    [0,0,0,0,0,0,0,0,0],
    [0,0,0,0,0,0,0,0,0],
    [0,0,1,0,0,0,0,0,0],
    [0,0,0,0,0,0,2,0,0],
    [0,0,0,0,0,0,0,0,0],
    [0,0,0,0,0,0,0,0,0],
    [0,0,0,0,0,0,0,0,0]
]

$ [
$     [4,8,3,7,2,6,1,5,9],
$     [7,2,6,1,5,9,4,8,3],
$     [1,5,9,4,8,3,7,2,6],
$     [8,3,7,2,6,1,5,9,4],
$     [2,6,1,5,9,4,8,3,7],
$     [5,9,4,8,3,7,2,6,1],
$     [3,7,2,6,1,5,9,4,8],
$     [6,1,5,9,4,8,3,7,2],
$     [9,4,8,3,7,2,6,1,5]
$ 
$ ]